\ This file has been generated by DOcplex
\ ENCODING=ISO-8859-1
\Problem name: random_problem.lp

Minimize
 obj: - 4 x0 + 4 x1 + x2 + 9 x3 - 3 x4 - 2 x5 + 7 x6 - 3 x7 - x8 + 7 x9 + 6 x10
      + 9 x11 + 4 x12 + 5 x14 - 2 x15 - 5 x16 - 3 x17 + 10 x18 + 10 x20 + 8 x22
      + 5 x23 + 3 x24 - x25 + x26 - 7 x28 + 9 x29 + 8 x30 + 6 x31 + 5 x32
      - 5 x33 - 9 x34 + [ - 6 x0*x2 - 20 x0*x10 - 8 x0*x11 + 20 x0*x17
      - 12 x0*x18 - 18 x0*x23 - 8 x0*x27 - 18 x0*x29 + 8 x0*x32 + 6 x0*x33
      + 20 x1*x4 - 12 x1*x16 - 14 x1*x17 - 16 x1*x19 - 18 x1*x23 - 2 x1*x26
      - 18 x1*x27 + 8 x1*x29 - 20 x1*x30 - 12 x1*x31 - 8 x2*x6 + 2 x2*x13
      - 4 x2*x14 - 10 x2*x17 + 6 x2*x24 + 18 x2*x26 + 16 x2*x31 + 16 x2*x32
      + 8 x2*x34 - 14 x3*x9 + 8 x3*x12 - 2 x3*x13 - 2 x3*x14 + 2 x3*x15
      - 16 x3*x16 - 16 x3*x20 + 4 x3*x26 - 10 x3*x29 - 18 x3*x31 - 18 x4*x5
      + 10 x4*x8 - 18 x4*x9 + 6 x4*x10 + 16 x4*x13 - 4 x4*x15 - 12 x4*x18
      - 10 x4*x20 + 14 x4*x33 + 8 x5*x7 + 2 x5*x10 + 10 x5*x12 - 16 x5*x13
      - 16 x5*x17 + 6 x5*x22 - 16 x5*x25 + 6 x5*x26 + 10 x5*x30 - 20 x6*x7
      + 8 x6*x14 + 4 x6*x16 - 8 x6*x20 + 14 x6*x24 - 4 x6*x25 + 12 x6*x29
      - 2 x6*x30 + 12 x6*x31 - 20 x7*x8 - 14 x7*x14 - 14 x7*x16 - 12 x7*x22
      + 2 x7*x25 - 20 x7*x27 + 8 x7*x30 - 14 x7*x32 - 4 x8*x9 - 4 x8*x12
      - 18 x8*x18 - 12 x8*x20 + 2 x8*x21 - 16 x8*x27 - 10 x8*x32 - 18 x8*x34
      + 8 x9*x14 + 4 x9*x19 + 20 x9*x23 - 8 x9*x25 + 6 x9*x27 - 2 x9*x28
      + 18 x9*x33 - 12 x10*x15 + 8 x10*x16 + 12 x10*x17 - 4 x10*x19 - 12 x10*x27
      - 14 x10*x28 - 12 x10*x30 + 8 x11*x12 - 8 x11*x14 + 16 x11*x16 - 4 x11*x21
      + 10 x11*x22 + 10 x11*x23 - 8 x11*x26 - 8 x11*x31 - 4 x11*x34 - 14 x12*x15
      - 16 x12*x17 - 8 x12*x20 - 8 x12*x21 + 16 x12*x26 - 8 x12*x27 + 20 x13*x17
      + 6 x13*x19 + 2 x13*x20 - 6 x13*x23 - 6 x13*x24 - 16 x13*x33 - 4 x14*x15
      + 6 x14*x16 + 20 x14*x22 + 20 x14*x28 + 8 x15*x19 + 20 x15*x22
      + 14 x15*x26 - 12 x15*x28 + 18 x15*x32 + 18 x16*x24 + 4 x16*x28
      - 6 x16*x30 - 8 x17*x18 + 8 x17*x28 + 6 x17*x34 + 18 x18*x22 - 10 x18*x24
      + 16 x18*x28 + 14 x18*x29 + 12 x18*x32 + 12 x18*x33 - 2 x19*x21
      - 4 x19*x22 + 2 x19*x23 - 20 x19*x31 + 20 x19*x33 + 4 x20*x24 + 10 x20*x28
      + 12 x20*x29 - 14 x20*x34 + 18 x21*x22 - 4 x21*x25 - 4 x21*x27
      - 14 x21*x30 - 16 x21*x31 - 12 x21*x32 + 10 x22*x31 - 20 x22*x32
      - 18 x23*x24 + 4 x23*x27 + 2 x23*x31 + 14 x23*x33 + 16 x24*x25
      - 12 x24*x29 + 14 x24*x33 - 14 x25*x29 + 8 x25*x30 + 8 x25*x31
      + 10 x25*x34 - 2 x26*x28 - 6 x26*x29 + 20 x26*x30 + 8 x27*x34 - 18 x28*x32
      - 16 x29*x34 + 4 x30*x34 - 16 x32*x34 ]/2
Subject To
 c0: - 2 x4 - 2 x7 + x13 - 2 x17 - x21 - x22 + x23 - x24 + x29 + x32 = 1
 c1: - x0 - 2 x8 + 2 x9 + 2 x11 + x17 - 2 x19 - x20 + 2 x23 + x29 + x33 = 1
 c2: x0 - x2 - x3 - x9 - x16 - 2 x19 - 2 x21 - 2 x24 - x25 - 2 x34 = -2
 c3: 2 x0 - x12 - 2 x13 + x15 + 2 x16 + 2 x18 - 2 x19 - 2 x25 - x26 - 2 x32 = 0
 c4: - 2 x1 + 2 x3 + x4 - 2 x5 - x11 + 2 x15 - 2 x18 - x22 + x25 + x28 = -2
 c5: - x2 + 2 x9 + 2 x12 + 2 x17 - 2 x18 + x19 + 2 x25 + 2 x28 + 2 x32 + x33 = 
     -1
 c6: - x3 - 2 x4 - x7 - x9 - x10 - x25 + 2 x29 + 2 x30 - x31 - 2 x33 = -1

Bounds
 0 <= x0 <= 1
 0 <= x1 <= 1
 0 <= x2 <= 1
 0 <= x3 <= 1
 0 <= x4 <= 1
 0 <= x5 <= 1
 0 <= x6 <= 1
 0 <= x7 <= 1
 0 <= x8 <= 1
 0 <= x9 <= 1
 0 <= x10 <= 1
 0 <= x11 <= 1
 0 <= x12 <= 1
 0 <= x13 <= 1
 0 <= x14 <= 1
 0 <= x15 <= 1
 0 <= x16 <= 1
 0 <= x17 <= 1
 0 <= x18 <= 1
 0 <= x19 <= 1
 0 <= x20 <= 1
 0 <= x21 <= 1
 0 <= x22 <= 1
 0 <= x23 <= 1
 0 <= x24 <= 1
 0 <= x25 <= 1
 0 <= x26 <= 1
 0 <= x27 <= 1
 0 <= x28 <= 1
 0 <= x29 <= 1
 0 <= x30 <= 1
 0 <= x31 <= 1
 0 <= x32 <= 1
 0 <= x33 <= 1
 0 <= x34 <= 1

Binaries
 x0 x1 x2 x3 x4 x5 x6 x7 x8 x9 x10 x11 x12 x13 x14 x15 x16 x17 x18 x19 x20 x21
 x22 x23 x24 x25 x26 x27 x28 x29 x30 x31 x32 x33 x34
End
